DATASET = "thpack4";
INSTANCE = "050";

WIDTH = 233;
HEIGHT = 220;
LENGTH = 587;

NO_OF_SHAPES = 10;
size = [|
  60,40,32 |
  98,75,55 |
  60,59,39 |
  81,56,40 |
  119,34,25 |
  107,61,42 |
  108,85,20 |
  97,66,45 |
  66,35,26 |
  69,32,20 |
|];

verticality = [|
  1,1,1 |
  1,1,1 |
  1,1,1 |
  0,1,1 |
  0,1,1 |
  0,1,1 |
  0,0,1 |
  0,1,1 |
  0,1,1 |
  0,1,1 |
|];

box_count = [
  13,
  17,
  27,
  17,
  9,
  10,
  19,
  22,
  17,
  16,
];
